solution status: optimal solution found
objective value:                                   46
x63                                                 1 	(obj:1)
x64                                                 1 	(obj:1)
x66                                                 1 	(obj:1)
x68                                                 1 	(obj:1)
x72                                                 1 	(obj:1)
x73                                                 1 	(obj:1)
x75                                                 1 	(obj:1)
x77                                                 1 	(obj:1)
x79                                                 1 	(obj:1)
x82                                                 1 	(obj:1)
x88                                                 1 	(obj:1)
x101                                                1 	(obj:1)
x103                                                1 	(obj:1)
x104                                                1 	(obj:1)
x105                                                1 	(obj:1)
x106                                                1 	(obj:1)
x107                                                1 	(obj:1)
x108                                                1 	(obj:1)
x109                                                1 	(obj:1)
x110                                                1 	(obj:1)
x114                                                1 	(obj:1)
x116                                                1 	(obj:1)
x120                                                1 	(obj:1)
x124                                                1 	(obj:1)
x127                                                1 	(obj:1)
x129                                                1 	(obj:1)
x130                                                1 	(obj:1)
x131                                                1 	(obj:1)
x132                                                1 	(obj:1)
x133                                                1 	(obj:1)
x136                                                1 	(obj:1)
x138                                                1 	(obj:1)
x139                                                1 	(obj:1)
x141                                                1 	(obj:1)
x143                                                1 	(obj:1)
x145                                                1 	(obj:1)
x147                                                1 	(obj:1)
x148                                                1 	(obj:1)
x149                                                1 	(obj:1)
x150                                                1 	(obj:1)
x154                                                1 	(obj:1)
x156                                                1 	(obj:1)
x157                                                1 	(obj:1)
x158                                                1 	(obj:1)
x162                                                1 	(obj:1)
x166                                                1 	(obj:1)
thingy.thingy.chamber[9].first.vcollect_y                   23 	(obj:0)
thingy.thingy.chamber[9].first.vcollect_z                   16 	(obj:0)
thingy.thingy.chamber[5].first.vcollect_y                   23 	(obj:0)
thingy.thingy.chamber[5].first.vcollect_z                   17 	(obj:0)
thingy.thingy.chamber[1].first.vcollect_y                   23 	(obj:0)
thingy.thingy.chamber[1].first.vcollect_z                    7 	(obj:0)
thingy.thingy.chamber[2].first.vcollect_y                   23 	(obj:0)
thingy.thingy.chamber[2].first.vcollect_z                    6 	(obj:0)
$_21__3_y                                          25 	(obj:0)
$_21__3_z                                           5 	(obj:0)
thingy.thingy.chamber[4].first.vcollect_y                   24 	(obj:0)
thingy.thingy.chamber[4].first.vcollect_z                   14 	(obj:0)
$_28__3_y                                          25 	(obj:0)
$_28__3_z                                           6 	(obj:0)
thingy.ctrl_sieve_hole_y                           23 	(obj:0)
thingy.ctrl_sieve_hole_z                            5 	(obj:0)
thingy.ctrl_sv1_hole_y                             22 	(obj:0)
thingy.ctrl_sv1_hole_z                             15 	(obj:0)
thingy.flush_sv1_hole_y                            19 	(obj:0)
thingy.flush_sv1_hole_z                            19 	(obj:0)
thingy.thingy.chamber[7].first.vcollect_y                   22 	(obj:0)
thingy.thingy.chamber[7].first.vcollect_z                   18 	(obj:0)
$_26__3_y                                          22 	(obj:0)
$_26__3_z                                           6 	(obj:0)
thingy.thingy.chamber[8].first.vcollect_y                   23 	(obj:0)
thingy.thingy.chamber[8].first.vcollect_z                   18 	(obj:0)
thingy.thingy.prep.vout3_y                         23 	(obj:0)
thingy.thingy.prep.vout3_z                         15 	(obj:0)
$_22__3_y                                          24 	(obj:0)
$_22__3_z                                           6 	(obj:0)
$_17__3_y                                          24 	(obj:0)
$_17__3_z                                          24 	(obj:0)
$_27__3_y                                          24 	(obj:0)
$_27__3_z                                           7 	(obj:0)
thingy.flush_stage_in_hole_y                       22 	(obj:0)
thingy.flush_stage_in_hole_z                       11 	(obj:0)
$_20__3_y                                          21 	(obj:0)
$_20__3_z                                          12 	(obj:0)
thingy.ctrl_prep_outlet_pinholes[1].hole_y                   17 	(obj:0)
thingy.ctrl_prep_outlet_pinholes[1].hole_z                   17 	(obj:0)
$_19__3_y                                          21 	(obj:0)
$_19__3_z                                           5 	(obj:0)
thingy.flush_prep_outlet_pinholes[1].hole_y                   17 	(obj:0)
thingy.flush_prep_outlet_pinholes[1].hole_z                   20 	(obj:0)
thingy.flush_sieve_hole_y                          20 	(obj:0)
thingy.flush_sieve_hole_z                          12 	(obj:0)
thingy.thingy.chamber[6].first.vcollect_y                   22 	(obj:0)
thingy.thingy.chamber[6].first.vcollect_z                   16 	(obj:0)
thingy.thingy.chamber[3].first.vcollect_y                   23 	(obj:0)
thingy.thingy.chamber[3].first.vcollect_z                   10 	(obj:0)
$_24__3_y                                          24 	(obj:0)
$_24__3_z                                          22 	(obj:0)
thingy.thingy.chamber[0].first.vcollect_y                   20 	(obj:0)
thingy.thingy.chamber[0].first.vcollect_z                    5 	(obj:0)
$_25__3_y                                          24 	(obj:0)
$_25__3_z                                           5 	(obj:0)
thingy.prep_outlet_pinholes[1].hole_y                   17 	(obj:0)
thingy.prep_outlet_pinholes[1].hole_z                   21 	(obj:0)
$_23__3_y                                          22 	(obj:0)
$_23__3_z                                           5 	(obj:0)
thingy.ctrl_stage_in_hole_y                        21 	(obj:0)
thingy.ctrl_stage_in_hole_z                        11 	(obj:0)
